(declare-fun bvlambda_33_ () (_ BitVec 11))
(declare-fun a160 () (Array (_ BitVec 1) (_ BitVec 10)))
(assert
(let (($e36 (_ bv0    10)))
(let (($e297 (   extract      bvlambda_33_)))
(let (($e298 (store a160 (not false)        $e36 )))
(let (($e300 (select $e298 (not   $e297))))
             (   extract      $e300)
                                                                                                                                                                                                                                                                                                                                                                                                                                                                                                                                                                                                                                                                                                                                                                                                                                                                                                                                                                                                                                                                                                                                                                                                                                                                                                                                                                                                                                                                                                                                                                                                                                                                                                                                                                                                                                                                                                                                                                                                                                                                                                                                                            ) ))                                                                                                                                                                                                       )                                   )
